synthes3.py
Ipopt 3.12.8: 
==> Warning: Treating 8 binary and 0 integer variables as continous.


******************************************************************************
This program contains Ipopt, a library for large-scale nonlinear optimization.
 Ipopt is released as open source code under the Eclipse Public License (EPL).
         For more information visit http://projects.coin-or.org/Ipopt
******************************************************************************

This is Ipopt version 3.12.8, running with linear solver ma27.

Number of nonzeros in equality constraint Jacobian...:        5
Number of nonzeros in inequality constraint Jacobian.:       68
Number of nonzeros in Lagrangian Hessian.............:        7

Total number of variables............................:       17
                     variables with only lower bounds:        0
                variables with lower and upper bounds:       17
                     variables with only upper bounds:        0
Total number of equality constraints.................:        2
Total number of inequality constraints...............:       21
        inequality constraints with only lower bounds:        0
   inequality constraints with lower and upper bounds:        0
        inequality constraints with only upper bounds:       21

iter    objective    inf_pr   inf_du lg(mu)  ||d||  lg(rg) alpha_du alpha_pr  ls
   0  1.2024969e+02 9.80e-01 2.40e+01  -1.0 0.00e+00    -  0.00e+00 0.00e+00   0
   1  1.1427514e+02 8.35e-01 2.25e+01  -1.0 4.54e+00    -  1.99e-02 1.48e-01f  1
   2  6.1786374e+01 1.55e-01 4.06e+01  -1.0 6.78e+00    -  5.46e-02 8.49e-01f  1
   3  4.8268233e+01 7.68e-01 3.57e+01  -1.0 4.91e+00    -  1.19e-01 1.27e-01f  1
   4  3.1655498e+01 5.39e-01 2.99e+01  -1.0 1.39e+01    -  1.53e-01 2.22e-01f  1
   5  2.0843606e+01 8.23e-01 7.25e+00  -1.0 5.17e+00    -  7.77e-01 5.20e-01f  1
   6  1.7395365e+01 5.39e-01 2.71e+00  -1.0 9.27e-01    -  1.00e+00 5.53e-01f  1
   7  1.6511764e+01 1.39e-17 4.03e-01  -1.0 5.97e-01    -  1.00e+00 1.00e+00f  1
   8  1.5420013e+01 2.78e-17 7.06e-02  -1.7 3.57e-01    -  1.00e+00 9.04e-01f  1
   9  1.5120151e+01 1.39e-17 3.28e-03  -2.5 8.81e-02    -  1.00e+00 1.00e+00f  1
iter    objective    inf_pr   inf_du lg(mu)  ||d||  lg(rg) alpha_du alpha_pr  ls
  10  1.5084332e+01 1.39e-17 3.11e-05  -3.8 9.33e-03    -  1.00e+00 1.00e+00f  1
  11  1.5082210e+01 0.00e+00 1.16e-07  -5.7 5.01e-04    -  1.00e+00 1.00e+00f  1
  12  1.5082184e+01 1.39e-17 7.20e-05  -8.6 6.13e-06    -  1.00e+00 9.96e-01h  1
  13  1.5082184e+01 2.78e-17 2.84e-14  -8.6 1.58e-08    -  1.00e+00 1.00e+00f  1

Number of Iterations....: 13

                                   (scaled)                 (unscaled)
Objective...............:   1.5082183624809080e+01    1.5082183624809080e+01
Dual infeasibility......:   2.8421709430404007e-14    2.8421709430404007e-14
Constraint violation....:   2.7755575615628914e-17    2.7755575615628914e-17
Complementarity.........:   4.9224007041691711e-09    4.9224007041691711e-09
Overall NLP error.......:   4.9224007041691711e-09    4.9224007041691711e-09


Number of objective function evaluations             = 14
Number of objective gradient evaluations             = 14
Number of equality constraint evaluations            = 14
Number of inequality constraint evaluations          = 14
Number of equality constraint Jacobian evaluations   = 14
Number of inequality constraint Jacobian evaluations = 14
Number of Lagrangian Hessian evaluations             = 13
Total CPU secs in IPOPT (w/o function evaluations)   =      0.004
Total CPU secs in NLP function evaluations           =      0.000

EXIT: Optimal Solution Found.

Time elapsed: 0.138653993607